sat
(model
(declare-sort BoundSet 0)
; cardinality of UnboundSet is 2
(declare-sort UnboundSet 0)
; rep: @uc_UnboundSet_0
; rep: @uc_UnboundSet_1
(define-fun a () UnboundSet @uc_UnboundSet_0)
(define-fun d () UnboundSet @uc_UnboundSet_1)
(define-fun ~IsBelieveIn ((BOUND_VARIABLE_305 UnboundSet)) Bool true)
(define-fun IsBurnInHell ((BOUND_VARIABLE_305 UnboundSet)) Bool true)
(define-fun IsForever ((BOUND_VARIABLE_305 UnboundSet)) Bool false)
)
